processor_id,period_id,qualification_id,employment,total_periods_lb,total_periods_ub,total_days_lb,total_dayss_ub,wage_level,day_id,preferred_level_proc
1,1,3,1,3,3,1,4,5,1,2
1,1,2,1,3,3,1,4,5,1,2
1,2,3,1,3,3,1,4,5,1,2
1,2,2,1,3,3,1,4,5,1,2
1,3,2,1,3,3,1,4,5,1,2
1,3,3,1,3,3,1,4,5,1,2
1,4,3,1,3,3,1,4,5,1,2
1,4,2,1,3,3,1,4,5,1,2
1,5,3,1,3,3,1,4,5,1,2
1,5,2,1,3,3,1,4,5,1,2
1,6,3,1,3,3,1,4,5,2,2
1,6,2,1,3,3,1,4,5,2,2
1,7,3,1,3,3,1,4,5,2,2
1,7,2,1,3,3,1,4,5,2,2
1,8,3,1,3,3,1,4,5,2,2
1,8,2,1,3,3,1,4,5,2,2
1,9,3,1,3,3,1,4,5,2,2
1,9,2,1,3,3,1,4,5,2,2
1,10,3,1,3,3,1,4,5,2,2
1,10,2,1,3,3,1,4,5,2,2
1,11,2,1,3,3,1,4,5,3,2
1,11,3,1,3,3,1,4,5,3,2
1,12,3,1,3,3,1,4,5,3,2
1,12,2,1,3,3,1,4,5,3,2
1,13,3,1,3,3,1,4,5,3,2
1,13,2,1,3,3,1,4,5,3,2
1,16,3,1,3,3,1,4,5,4,2
1,16,2,1,3,3,1,4,5,4,2
1,21,2,1,3,3,1,4,5,5,2
1,21,3,1,3,3,1,4,5,5,2
1,22,3,1,3,3,1,4,5,5,2
1,22,2,1,3,3,1,4,5,5,2
1,23,3,1,3,3,1,4,5,5,2
1,23,2,1,3,3,1,4,5,5,2
1,24,3,1,3,3,1,4,5,5,2
1,24,2,1,3,3,1,4,5,5,2
1,25,3,1,3,3,1,4,5,5,2
1,25,2,1,3,3,1,4,5,5,2
2,1,3,1,3,3,1,4,5,1,2
2,1,2,1,3,3,1,4,5,1,2
2,2,3,1,3,3,1,4,5,1,2
2,2,2,1,3,3,1,4,5,1,2
2,3,3,1,3,3,1,4,5,1,2
2,3,2,1,3,3,1,4,5,1,2
2,4,3,1,3,3,1,4,5,1,2
2,4,2,1,3,3,1,4,5,1,2
2,5,2,1,3,3,1,4,5,1,2
2,5,3,1,3,3,1,4,5,1,2
2,6,3,1,3,3,1,4,5,2,2
2,6,2,1,3,3,1,4,5,2,2
2,7,3,1,3,3,1,4,5,2,2
2,7,2,1,3,3,1,4,5,2,2
2,8,3,1,3,3,1,4,5,2,2
2,8,2,1,3,3,1,4,5,2,2
2,9,3,1,3,3,1,4,5,2,2
2,9,2,1,3,3,1,4,5,2,2
2,10,3,1,3,3,1,4,5,2,2
2,10,2,1,3,3,1,4,5,2,2
2,11,3,1,3,3,1,4,5,3,2
2,11,2,1,3,3,1,4,5,3,2
2,12,3,1,3,3,1,4,5,3,2
2,12,2,1,3,3,1,4,5,3,2
2,13,2,1,3,3,1,4,5,3,2
2,13,3,1,3,3,1,4,5,3,2
2,16,3,1,3,3,1,4,5,4,2
2,16,2,1,3,3,1,4,5,4,2
2,17,3,1,3,3,1,4,5,4,2
2,17,2,1,3,3,1,4,5,4,2
2,18,3,1,3,3,1,4,5,4,2
2,18,2,1,3,3,1,4,5,4,2
2,19,3,1,3,3,1,4,5,4,2
2,19,2,1,3,3,1,4,5,4,2
2,20,3,1,3,3,1,4,5,4,2
2,20,2,1,3,3,1,4,5,4,2
2,21,3,1,3,3,1,4,5,5,2
2,21,2,1,3,3,1,4,5,5,2
2,22,3,1,3,3,1,4,5,5,2
2,22,2,1,3,3,1,4,5,5,2
2,23,2,1,3,3,1,4,5,5,2
2,23,3,1,3,3,1,4,5,5,2
2,24,3,1,3,3,1,4,5,5,2
2,24,2,1,3,3,1,4,5,5,2
2,25,3,1,3,3,1,4,5,5,2
2,25,2,1,3,3,1,4,5,5,2
3,1,3,1,3,3,1,4,5,1,2
3,1,2,1,3,3,1,4,5,1,2
3,2,3,1,3,3,1,4,5,1,2
3,2,2,1,3,3,1,4,5,1,2
3,3,3,1,3,3,1,4,5,1,2
3,3,2,1,3,3,1,4,5,1,2
3,4,3,1,3,3,1,4,5,1,2
3,4,2,1,3,3,1,4,5,1,2
3,5,3,1,3,3,1,4,5,1,2
3,5,2,1,3,3,1,4,5,1,2
3,6,3,1,3,3,1,4,5,2,2
3,6,2,1,3,3,1,4,5,2,2
3,7,3,1,3,3,1,4,5,2,2
3,7,2,1,3,3,1,4,5,2,2
3,8,3,1,3,3,1,4,5,2,2
3,8,2,1,3,3,1,4,5,2,2
3,9,3,1,3,3,1,4,5,2,2
3,9,2,1,3,3,1,4,5,2,2
3,10,3,1,3,3,1,4,5,2,2
3,10,2,1,3,3,1,4,5,2,2
3,11,3,1,3,3,1,4,5,3,2
3,11,2,1,3,3,1,4,5,3,2
3,12,3,1,3,3,1,4,5,3,2
3,12,2,1,3,3,1,4,5,3,2
3,13,2,1,3,3,1,4,5,3,2
3,13,3,1,3,3,1,4,5,3,2
3,16,3,1,3,3,1,4,5,4,2
3,16,2,1,3,3,1,4,5,4,2
3,17,3,1,3,3,1,4,5,4,2
3,17,2,1,3,3,1,4,5,4,2
3,18,3,1,3,3,1,4,5,4,2
3,18,2,1,3,3,1,4,5,4,2
3,19,3,1,3,3,1,4,5,4,2
3,19,2,1,3,3,1,4,5,4,2
3,20,3,1,3,3,1,4,5,4,2
3,20,2,1,3,3,1,4,5,4,2
3,21,3,1,3,3,1,4,5,5,2
3,21,2,1,3,3,1,4,5,5,2
3,22,3,1,3,3,1,4,5,5,2
3,22,2,1,3,3,1,4,5,5,2
3,23,3,1,3,3,1,4,5,5,2
3,23,2,1,3,3,1,4,5,5,2
3,24,3,1,3,3,1,4,5,5,2
3,24,2,1,3,3,1,4,5,5,2
3,25,3,1,3,3,1,4,5,5,2
3,25,2,1,3,3,1,4,5,5,2
4,11,3,2,1,3,1,2,1,3,2
4,11,2,2,1,3,1,2,1,3,2
4,12,3,2,1,3,1,2,1,3,2
4,12,2,2,1,3,1,2,1,3,2
4,13,3,2,1,3,1,2,1,3,2
4,13,2,2,1,3,1,2,1,3,2
4,14,3,2,1,3,1,2,1,3,2
4,14,2,2,1,3,1,2,1,3,2
4,15,3,2,1,3,1,2,1,3,2
4,15,2,2,1,3,1,2,1,3,2
4,16,3,2,1,3,1,2,1,4,2
4,16,2,2,1,3,1,2,1,4,2
4,17,3,2,1,3,1,2,1,4,2
4,17,2,2,1,3,1,2,1,4,2
4,18,3,2,1,3,1,2,1,4,2
4,18,2,2,1,3,1,2,1,4,2
4,19,3,2,1,3,1,2,1,4,2
4,19,2,2,1,3,1,2,1,4,2
4,20,3,2,1,3,1,2,1,4,2
4,20,2,2,1,3,1,2,1,4,2
5,6,2,2,1,3,1,3,1,2,1
5,6,3,2,1,3,1,3,1,2,1
5,7,3,2,1,3,1,3,1,2,1
5,7,2,2,1,3,1,3,1,2,1
5,8,3,2,1,3,1,3,1,2,1
5,8,2,2,1,3,1,3,1,2,1
5,11,3,2,1,3,1,3,1,3,2
5,11,2,2,1,3,1,3,1,3,2
5,12,3,2,1,3,1,3,1,3,2
5,12,2,2,1,3,1,3,1,3,2
5,13,3,2,1,3,1,3,1,3,1
5,13,2,2,1,3,1,3,1,3,1
5,16,3,2,1,3,1,3,1,4,2
5,16,2,2,1,3,1,3,1,4,2
5,17,3,2,1,3,1,3,1,4,2
5,17,2,2,1,3,1,3,1,4,2
5,18,3,2,1,3,1,3,1,4,1
5,18,2,2,1,3,1,3,1,4,1
5,21,3,2,1,3,1,3,1,5,1
5,21,2,2,1,3,1,3,1,5,1
5,22,3,2,1,3,1,3,1,5,1
5,22,2,2,1,3,1,3,1,5,1
5,23,2,2,1,3,1,3,1,5,1
5,23,3,2,1,3,1,3,1,5,1
6,6,3,2,1,3,1,3,1,2,1
6,6,2,2,1,3,1,3,1,2,1
6,7,3,2,1,3,1,3,1,2,2
6,7,2,2,1,3,1,3,1,2,2
6,8,3,2,1,3,1,3,1,2,2
6,8,2,2,1,3,1,3,1,2,2
6,9,3,2,1,3,1,3,1,2,1
6,9,2,2,1,3,1,3,1,2,1
6,10,2,2,1,3,1,3,1,2,2
6,10,3,2,1,3,1,3,1,2,2
6,11,3,2,1,3,1,3,1,3,1
6,11,2,2,1,3,1,3,1,3,1
6,12,3,2,1,3,1,3,1,3,1
6,12,2,2,1,3,1,3,1,3,1
6,13,3,2,1,3,1,3,1,3,1
6,13,2,2,1,3,1,3,1,3,1
6,14,3,2,1,3,1,3,1,3,1
6,14,2,2,1,3,1,3,1,3,1
6,15,2,2,1,3,1,3,1,3,1
6,15,3,2,1,3,1,3,1,3,1
6,16,3,2,1,3,1,3,1,4,1
6,16,2,2,1,3,1,3,1,4,1
6,17,3,2,1,3,1,3,1,4,2
6,17,2,2,1,3,1,3,1,4,2
6,21,3,2,1,3,1,3,1,5,1
6,21,2,2,1,3,1,3,1,5,1
6,22,2,2,1,3,1,3,1,5,1
6,22,3,2,1,3,1,3,1,5,1
6,23,3,2,1,3,1,3,1,5,1
6,23,2,2,1,3,1,3,1,5,1
6,24,3,2,1,3,1,3,1,5,1
6,24,2,2,1,3,1,3,1,5,1
6,25,3,2,1,3,1,3,1,5,1
6,25,2,2,1,3,1,3,1,5,1
7,11,3,2,1,3,1,2,1,3,1
7,11,2,2,1,3,1,2,1,3,1
7,12,2,2,1,3,1,2,1,3,1
7,12,3,2,1,3,1,2,1,3,1
7,13,3,2,1,3,1,2,1,3,1
7,13,2,2,1,3,1,2,1,3,1
7,14,3,2,1,3,1,2,1,3,1
7,14,2,2,1,3,1,2,1,3,1
7,15,3,2,1,3,1,2,1,3,1
7,15,2,2,1,3,1,2,1,3,1
7,16,3,2,1,3,1,2,1,4,2
7,16,2,2,1,3,1,2,1,4,2
7,17,3,2,1,3,1,2,1,4,2
7,17,2,2,1,3,1,2,1,4,2
7,18,3,2,1,3,1,2,1,4,2
7,18,2,2,1,3,1,2,1,4,2
7,19,2,2,1,3,1,2,1,4,2
7,19,3,2,1,3,1,2,1,4,2
7,20,3,2,1,3,1,2,1,4,2
7,20,2,2,1,3,1,2,1,4,2
7,21,3,2,1,3,1,2,1,5,1
7,21,2,2,1,3,1,2,1,5,1
7,22,3,2,1,3,1,2,1,5,1
7,22,2,2,1,3,1,2,1,5,1
7,23,3,2,1,3,1,2,1,5,1
7,23,2,2,1,3,1,2,1,5,1
7,24,3,2,1,3,1,2,1,5,1
7,24,2,2,1,3,1,2,1,5,1
7,25,3,2,1,3,1,2,1,5,1
7,25,2,2,1,3,1,2,1,5,1
8,11,1,2,1,3,1,2,1,3,2
8,11,3,2,1,3,1,2,1,3,2
8,12,3,2,1,3,1,2,1,3,2
8,12,1,2,1,3,1,2,1,3,2
8,13,3,2,1,3,1,2,1,3,2
8,13,1,2,1,3,1,2,1,3,2
8,14,3,2,1,3,1,2,1,3,2
8,14,1,2,1,3,1,2,1,3,2
8,16,3,2,1,3,1,2,1,4,2
8,16,1,2,1,3,1,2,1,4,2
8,17,3,2,1,3,1,2,1,4,2
8,17,1,2,1,3,1,2,1,4,2
8,18,3,2,1,3,1,2,1,4,2
8,18,1,2,1,3,1,2,1,4,2
8,19,3,2,1,3,1,2,1,4,2
8,19,1,2,1,3,1,2,1,4,2
9,6,3,2,1,3,1,4,1,2,2
9,6,1,2,1,3,1,4,1,2,2
9,7,3,2,1,3,1,4,1,2,2
9,7,1,2,1,3,1,4,1,2,2
9,8,3,2,1,3,1,4,1,2,2
9,8,1,2,1,3,1,4,1,2,2
9,11,3,2,1,3,1,4,1,3,2
9,11,1,2,1,3,1,4,1,3,2
9,12,1,2,1,3,1,4,1,3,2
9,12,3,2,1,3,1,4,1,3,2
9,13,3,2,1,3,1,4,1,3,2
9,13,1,2,1,3,1,4,1,3,2
9,14,3,2,1,3,1,4,1,3,2
9,14,1,2,1,3,1,4,1,3,2
9,16,3,2,1,3,1,4,1,4,2
9,16,1,2,1,3,1,4,1,4,2
9,17,3,2,1,3,1,4,1,4,2
9,17,1,2,1,3,1,4,1,4,2
9,18,3,2,1,3,1,4,1,4,2
9,18,1,2,1,3,1,4,1,4,2
9,21,1,2,1,3,1,4,1,5,2
9,21,3,2,1,3,1,4,1,5,2
9,22,1,2,1,3,1,4,1,5,2
9,22,3,2,1,3,1,4,1,5,2
9,23,3,2,1,3,1,4,1,5,2
9,23,1,2,1,3,1,4,1,5,2
10,6,3,2,1,3,1,2,1,2,1
10,6,1,2,1,3,1,2,1,2,1
10,7,3,2,1,3,1,2,1,2,1
10,7,1,2,1,3,1,2,1,2,1
10,8,3,2,1,3,1,2,1,2,1
10,8,1,2,1,3,1,2,1,2,1
10,12,3,2,1,3,1,2,1,3,2
10,12,1,2,1,3,1,2,1,3,2
10,13,3,2,1,3,1,2,1,3,2
10,13,1,2,1,3,1,2,1,3,2
10,14,3,2,1,3,1,2,1,3,2
10,14,1,2,1,3,1,2,1,3,2
11,21,3,2,1,3,1,1,1,5,2
11,21,1,2,1,3,1,1,1,5,2
11,22,1,2,1,3,1,1,1,5,2
11,22,3,2,1,3,1,1,1,5,2
11,23,3,2,1,3,1,1,1,5,2
11,23,1,2,1,3,1,1,1,5,2
11,24,3,2,1,3,1,1,1,5,2
11,24,1,2,1,3,1,1,1,5,2
11,25,3,2,1,3,1,1,1,5,2
11,25,1,2,1,3,1,1,1,5,2
12,11,3,2,1,3,1,3,1,3,2
12,11,1,2,1,3,1,3,1,3,2
12,12,3,2,1,3,1,3,1,3,2
12,12,1,2,1,3,1,3,1,3,2
12,13,1,2,1,3,1,3,1,3,1
12,13,3,2,1,3,1,3,1,3,1
12,14,3,2,1,3,1,3,1,3,1
12,14,1,2,1,3,1,3,1,3,1
12,16,3,2,1,3,1,3,1,4,2
12,16,1,2,1,3,1,3,1,4,2
12,17,3,2,1,3,1,3,1,4,2
12,17,1,2,1,3,1,3,1,4,2
12,21,3,2,1,3,1,3,1,5,2
12,21,1,2,1,3,1,3,1,5,2
12,22,3,2,1,3,1,3,1,5,2
12,22,1,2,1,3,1,3,1,5,2
12,23,3,2,1,3,1,3,1,5,2
12,23,1,2,1,3,1,3,1,5,2
12,24,3,2,1,3,1,3,1,5,2
12,24,1,2,1,3,1,3,1,5,2
13,14,1,2,1,3,1,2,1,3,2
13,14,3,2,1,3,1,2,1,3,2
13,15,3,2,1,3,1,2,1,3,2
13,15,1,2,1,3,1,2,1,3,2
13,16,3,2,1,3,1,2,1,4,2
13,16,1,2,1,3,1,2,1,4,2
13,17,3,2,1,3,1,2,1,4,2
13,17,1,2,1,3,1,2,1,4,2
13,18,3,2,1,3,1,2,1,4,2
13,18,1,2,1,3,1,2,1,4,2
13,19,3,2,1,3,1,2,1,4,2
13,19,1,2,1,3,1,2,1,4,2
13,20,3,2,1,3,1,2,1,4,2
13,20,1,2,1,3,1,2,1,4,2
14,6,3,2,1,3,1,4,1,2,2
14,6,2,2,1,3,1,4,1,2,2
14,7,3,2,1,3,1,4,1,2,2
14,7,2,2,1,3,1,4,1,2,2
14,8,3,2,1,3,1,4,1,2,2
14,8,2,2,1,3,1,4,1,2,2
14,9,3,2,1,3,1,4,1,2,2
14,9,2,2,1,3,1,4,1,2,2
14,10,2,2,1,3,1,4,1,2,2
14,10,3,2,1,3,1,4,1,2,2
14,11,3,2,1,3,1,4,1,3,2
14,11,2,2,1,3,1,4,1,3,2
14,12,3,2,1,3,1,4,1,3,2
14,12,2,2,1,3,1,4,1,3,2
14,13,3,2,1,3,1,4,1,3,2
14,13,2,2,1,3,1,4,1,3,2
14,14,3,2,1,3,1,4,1,3,2
14,14,2,2,1,3,1,4,1,3,2
14,15,3,2,1,3,1,4,1,3,2
14,15,2,2,1,3,1,4,1,3,2
14,16,3,2,1,3,1,4,1,4,2
14,16,2,2,1,3,1,4,1,4,2
14,17,3,2,1,3,1,4,1,4,2
14,17,2,2,1,3,1,4,1,4,2
14,18,2,2,1,3,1,4,1,4,2
14,18,3,2,1,3,1,4,1,4,2
14,19,3,2,1,3,1,4,1,4,2
14,19,2,2,1,3,1,4,1,4,2
14,20,3,2,1,3,1,4,1,4,2
14,20,2,2,1,3,1,4,1,4,2
14,21,3,2,1,3,1,4,1,5,2
14,21,2,2,1,3,1,4,1,5,2
14,22,3,2,1,3,1,4,1,5,2
14,22,2,2,1,3,1,4,1,5,2
14,23,3,2,1,3,1,4,1,5,2
14,23,2,2,1,3,1,4,1,5,2
14,24,3,2,1,3,1,4,1,5,2
14,24,2,2,1,3,1,4,1,5,2
14,25,3,2,1,3,1,4,1,5,2
14,25,2,2,1,3,1,4,1,5,2
